Linux optc-09-06 4.15.0-58-generic #64-Ubuntu SMP Tue Aug 6 11:12:41 UTC 2019 x86_64 x86_64 x86_64 GNU/Linux

top - 14:09:56 up 1 day,  4:10,  0 users,  load average: 1,61, 3,21, 5,54
Tasks: 291 gesamt,   1 laufend, 149 schlafend,   0 gestoppt,   0 Zombie
%CPU(s):  8,0 be,  0,2 sy,  0,0 ni, 91,8 un,  0,0 wa,  0,0 hi,  0,0 si,  0,0 st
KiB Spch : 97514992 gesamt, 95357216 frei,   646668 belegt,  1511108 Puff/Cache
KiB Swap:  8388604 gesamt,  8388604 frei,        0 belegt. 96126536 verfü Spch 

  PID USER      PR  NI    VIRT    RES    SHR S  %CPU %MEM     ZEIT+ BEFEHL
18070 bzfhende  20   0   52664   4096   3348 R   6,2  0,0   0:00.01 top
    1 root      20   0  225648   9400   6704 S   0,0  0,0   0:09.89 systemd
    2 root      20   0       0      0      0 S   0,0  0,0   0:00.08 kthreadd
    3 root      20   0       0      0      0 I   0,0  0,0   0:01.84 kworker/0:0
    4 root       0 -20       0      0      0 I   0,0  0,0   0:00.00 kworker/0:+
    6 root      20   0       0      0      0 I   0,0  0,0   0:00.00 kworker/u3+
    7 root       0 -20       0      0      0 I   0,0  0,0   0:00.00 mm_percpu_+
    8 root      20   0       0      0      0 S   0,0  0,0   0:00.02 ksoftirqd/0

hard time limit: 04:10:00
hard mem limit: 55100

SLURM jobID: 2182246

@01 /nfs/optimi/kombadon/IP/miplib2017/chromaticindex1024-7.mps.gz ===========
-----------------------------
Do 22. Aug 14:09:56 CEST 2019
-----------------------------
@03 1566475796
@05 7200
SCIP version 6.0.0 [precision: 8 byte] [memory: block] [mode: optimized] [LP solver: CPLEX 12.8.0.0] [GitHash: 41ab6e0014]
Copyright (C) 2002-2018 Konrad-Zuse-Zentrum fuer Informationstechnik Berlin (ZIB)

External codes: 
  Readline 7.0         GNU library for command line editing (gnu.org/s/readline)
  CPLEX 12.8.0.0       Linear Programming Solver developed by IBM (www.cplex.com)
  CppAD 20180000.0     Algorithmic Differentiation of C++ algorithms developed by B. Bell (www.coin-or.org/CppAD)
  ZLIB 1.2.11          General purpose compression library by J. Gailly and M. Adler (zlib.net)
  GMP 6.1.2            GNU Multiple Precision Arithmetic Library developed by T. Granlund (gmplib.org)
  bliss 0.73p          Computing Graph Automorphism Groups by T. Junttila and P. Kaski (http://www.tcs.hut.fi/Software/bliss/)

user parameter file <scip.set> not found - using default parameters

SCIP> 
SCIP> set load /home/optimi/bzfhende/opti/scip-opti/check/../settings/enable_treeeprofile.set
loaded parameter file </home/optimi/bzfhende/opti/scip-opti/check/../settings/enable_treeprofile.set>
SCIP> set misc referencevalue 4
misc/referencevalue = 4
SCIP> set limits time 7200
limits/time = 7200
SCIP> set limits nodes 2100000000
limits/nodes = 2100000000
SCIP> set limits memory 50000
limits/memory = 50000
SCIP> set lp advanced threads 1
lp/threads = 1
SCIP> set timing clocktype 1
timing/clocktype = 1
SCIP> set display freq 10000
display/freq = 10000
SCIP> set memory savefac 1.0
memory/savefac = 1
SCIP> set save /home/optimi/bzfhende/opti/scip-opti/check/treesize.estimation.jouurnal.3/bzfhende.miplib2017.22_chromaticindex1024-7.scip.M640.enable_treeprofile..set
saved parameter file </home/optimi/bzfhende/opti/scip-opti/check/treesize.estimation.journal.3/bzfhende.miplib2017.22_chromaticindex1024-7.scip.M640.enable_treeprofile.set>
SCIP> read /nfs/optimi/kombadon/IP/miplib2017/chromaticindex1024-7.mps.gz

read problem </nfs/optimi/kombadon/IP/miplib2017/chromaticindex1024-7.mps.gz>
============

original problem has 73728 variables (73728 bin, 0 int, 0 impl, 0 cont) and 67583 constraints
SCIP> display parameters

number of parameters = 2448
non-default parameter settings:
display/freq = 10000
limits/time = 7200
limits/nodes = 2100000000
limits/memory = 50000
lp/threads = 1
memory/savefac = 1
misc/referencevalue = 4
presolving/maxrestarts = 0
estimates/profile/enabled = TRUE
estimates/profile/maxdepthfactor = 10
estimates/profile/freq = 0

SCIP> optimize

Activating tree profile data collection
presolving:
(round 1, exhaustive) 0 del vars, 0 del conss, 0 add conss, 0 chg bounds, 0 chg sides, 0 chg coeffs, 67583 upgd conss, 0 impls, 67583 clqs
   (1.8s) probing: 51/73728 (0.1%) - 0 fixings, 0 aggregations, 0 implications, 0 bound changes
   (1.8s) probing aborted: 50/50 successive totally useless probings
presolving (2 rounds: 2 fast, 2 medium, 2 exhaustive):
 0 deleted vars, 0 deleted constraints, 0 added constraints, 0 tightened bounds, 0 added holes, 0 changed sides, 0 changed coefficients
 0 implications, 67583 cliques
presolved problem has 73728 variables (73728 bin, 0 int, 0 impl, 0 cont) and 67583 constraints
  67583 constraints of type <setppc>
transformed objective value is always integral (scale: 1)
Presolving Time: 1.71

 time | node  | left  |LP iter|LP it/n| mem |mdpt |frac |vars |cons |cols |rows |cuts |confs|strbr|  dualbound   | primalbound  |  gap   
 84.4s|     1 |     0 | 60569 |     - | 411M|   0 |  45k|  73k|  67k|  73k|  67k|   0 |  52 |   0 | 3.000000e+00 |      --      |    Inf 
F 242s|     1 |     0 | 96086 |     - | 421M|   0 |   0 |  73k|  67k|  73k|  67k|   0 |  53 |   0 | 3.000000e+00 | 4.000000e+00 |  33.33%
  304s|     1 |     0 | 97373 |     - | 468M|   0 |  46k|  73k|  67k|  73k|  67k|   7 |  53 |   0 | 3.000000e+00 | 4.000000e+00 |  33.33%
  365s|     1 |     0 | 97822 |     - | 485M|   0 |  43k|  73k|  67k|  73k|  67k|  13 |  54 |   0 | 3.000000e+00 | 4.000000e+00 |  33.33%
  418s|     1 |     0 | 98092 |     - | 499M|   0 |  43k|  73k|  67k|  73k|  67k|  15 |  55 |   0 | 3.000000e+00 | 4.000000e+00 |  33.33%
  478s|     1 |     0 | 99041 |     - | 513M|   0 |  46k|  73k|  67k|  73k|  67k|  17 |  56 |   0 | 3.000000e+00 | 4.000000e+00 |  33.33%
  542s|     1 |     0 |100969 |     - | 524M|   0 |  43k|  73k|  67k|  73k|  67k|  40 |  57 |   0 | 3.000000e+00 | 4.000000e+00 |  33.33%
  599s|     1 |     0 |101577 |     - | 535M|   0 |  43k|  73k|  67k|  73k|  67k|  42 |  58 |   0 | 3.000000e+00 | 4.000000e+00 |  33.33%
  658s|     1 |     0 |102214 |     - | 552M|   0 |  43k|  73k|  67k|  73k|  67k|  44 |  59 |   0 | 3.000000e+00 | 4.000000e+00 |  33.33%
  713s|     1 |     0 |102948 |     - | 564M|   0 |  43k|  73k|  67k|  73k|  67k|  46 |  60 |   0 | 3.000000e+00 | 4.000000e+00 |  33.33%
  769s|     1 |     0 |103468 |     - | 574M|   0 |  43k|  73k|  67k|  73k|  67k|  48 |  61 |   0 | 3.000000e+00 | 4.000000e+00 |  33.33%
  826s|     1 |     0 |103892 |     - | 583M|   0 |  43k|  73k|  67k|  73k|  67k|  50 |  62 |   0 | 3.000000e+00 | 4.000000e+00 |  33.33%
  883s|     1 |     0 |104593 |     - | 595M|   0 |  43k|  73k|  67k|  73k|  67k|  52 |  63 |   0 | 3.000000e+00 | 4.000000e+00 |  33.33%
SCIP nodes: 1 Estimation: -1
  928s|     1 |     2 |104593 |     - | 595M|   0 |  43k|  73k|  67k|  73k|  67k|  52 |  64 |  19 | 3.000000e+00 | 4.000000e+00 |  33.33%
   (928.8s) symmetry computation started: requiring (bin +, int -, cont -), (fixed: bin -, int +, cont -)
   (930.4s) symmetry computation finished: 4 generators found (max: 868, log10 of symmetry group size: 1.7)
   (930.4s) turning off presolver <domcol> for remaining computations in order to avoid conflicts
SCIP nodes: 2 Estimation: -1
Report 1
Time Elapsed: 930.44
  Tree Data        : 3 nodes (2 visited, 1 inner, 1 leaves, 1 open), progress: 0.5000
Tree Estimation    :       estim       value       trend  resolution      smooth
  wbe              :          -1           -           -           -           -
  tree profile     :          -1           -           -           -           -
  gap              :           2     0.75000     0.75000           1           2
  progress         :           3     0.50000     0.50000           1           3
  leaf-frequency   :           2     0.25000     0.75000           1           2
  ssg              :           3     0.50000    -0.50000           1           3
  open-nodes       :           4     1.00000     1.00000           1           4
End of Report 1

SCIP nodes: 4 Estimation: -1
SCIP nodes: 8 Estimation: -1
SCIP nodes: 16 Estimation: -1
SCIP nodes: 32 Estimation: -1
SCIP nodes: 64 Estimation: -1
SCIP nodes: 128 Estimation: 349.23
SCIP nodes: 256 Estimation: 533.396
SCIP nodes: 512 Estimation: -1
SCIP nodes: 1024 Estimation: -1
SCIP nodes: 2048 Estimation: -1
SCIP nodes: 4096 Estimation: -1
SCIP nodes: 8192 Estimation: 5.2116e+65
 5633s| 10000 |  2007 |  1100k|  99.6 |1496M| 660 |  18k|  73k|  73k|  73k|  67k|7472 |7892 |4731 | 3.000000e+00 | 4.000000e+00 |  33.33%

SCIP Status        : solving was interrupted [time limit reached]
Solving Time (sec) : 7200.03
Solving Nodes      : 15962
Primal Bound       : +4.00000000000000e+00 (3 solutions)
Dual Bound         : +3.00000000000000e+00
Gap                : 33.33 %

SCIP> display statistics

SCIP Status        : solving was interrupted [time limit reached]
Total Time         :    7200.34
  solving          :    7200.03
  presolving       :       1.71 (included in solving)
  reading          :       0.31
  copying          :       2.84 (17 #copies) (minimal 0.15, maximal 0.18, average 0.17)
Original Problem   :
  Problem name     : chromaticindex1024-7
  Variables        : 73728 (73728 binary, 0 integer, 0 implicit integer, 0 continuous)
  Constraints      : 67583 initial, 67583 maximal
  Objective        : minimize, 4 non-zeros (abs.min = 1, abs.max = 1)
Presolved Problem  :
  Problem name     : t_chromaticindex1024-7
  Variables        : 73728 (73728 binary, 0 integer, 0 implicit integer, 0 continuous)
  Constraints      : 67583 initial, 74197 maximal
  Objective        : minimize, 4 non-zeros (abs.min = 1, abs.max = 1)
Presolvers         :   ExecTime  SetupTime  Calls  FixedVars   AggrVars   ChgTypes  ChgBounds   AddHoles    DelCons    AddCons   ChgSides   ChgCoefs
  boundshift       :       0.00       0.00      0          0          0          0          0          0          0          0          0          0
  convertinttobin  :       0.00       0.00      0          0          0          0          0          0          0          0          0          0
  domcol           :       0.06       0.00      1          0          0          0          0          0          0          0          0          0
  dualagg          :       0.00       0.00      0          0          0          0          0          0          0          0          0          0
  dualcomp         :       0.00       0.00      0          0          0          0          0          0          0          0          0          0
  dualinfer        :       0.00       0.00      0          0          0          0          0          0          0          0          0          0
  gateextraction   :       0.00       0.00      0          0          0          0          0          0          0          0          0          0
  implics          :       0.00       0.00      2          0          0          0          0          0          0          0          0          0
  inttobinary      :       0.00       0.00      0          0          0          0          0          0          0          0          0          0
  qpkktref         :       0.00       0.00      0          0          0          0          0          0          0          0          0          0
  redvub           :       0.00       0.00      0          0          0          0          0          0          0          0          0          0
  sparsify         :       0.09       0.00      1          0          0          0          0          0          0          0          0          0
  stuffing         :       0.00       0.00      0          0          0          0          0          0          0          0          0          0
  symbreak         :       0.00       0.00      0          0          0          0          0          0          0          0          0          0
  symmetry         :       0.00       0.00      0          0          0          0          0          0          0          0          0          0
  trivial          :       0.00       0.00      2          0          0          0          0          0          0          0          0          0
  tworowbnd        :       0.00       0.00      0          0          0          0          0          0          0          0          0          0
  dualfix          :       0.01       0.00      2          0          0          0          0          0          0          0          0          0
  genvbounds       :       0.00       0.00      0          0          0          0          0          0          0          0          0          0
  orbitalfixing    :       0.00       0.00      0          0          0          0          0          0          0          0          0          0
  probing          :       0.67       0.00      1          0          0          0          0          0          0          0          0          0
  pseudoobj        :       0.00       0.00      0          0          0          0          0          0          0          0          0          0
  vbounds          :       0.05       0.00      1          0          0          0          0          0          0          0          0          0
  knapsack         :       0.00       0.00      0          0          0          0          0          0          0          0          0          0
  setppc           :       0.21       0.01      3          0          0          0          0          0          0          0          0          0
  linear           :       0.39       0.06      2          0          0          0          0          0          0          0          0          0
  logicor          :       0.00       0.00      0          0          0          0          0          0          0          0          0          0
  benders          :       0.00       0.00      0          0          0          0          0          0          0          0          0          0
  components       :       0.06       0.00      1          0          0          0          0          0          0          0          0          0
  root node        :          -          -      -          9          -          -          9          -          -          -          -          -
Constraints        :     Number  MaxNumber  #Separate #Propagate    #EnfoLP    #EnfoRelax  #EnfoPS    #Check   #ResProp    Cutoffs    DomReds       Cuts    Applied      Conss   Children
  benderslp        :          0          0          0          0      12074          0          0       1882          0          0          0          0          0          0          0
  integral         :          0          0          0          0      12074          0          0       1882          0          0       2396          0          0       1979      23496
  knapsack         :          0+       122          0     688959          0          0          0          0        489         85       1887          0          0          0          0
  setppc           :      67583+     67584         11     871201          0          0          0       1877      91892       2066     299519          0          0          0          0
  linear           :          0+         5          0      97274          0          0          0          0         16          3         81          0          0          0          0
  logicor          :          0+      6488         11      61747          0          0          0          0       6018        305       6525          0          0          0          0
  benders          :          0          0          0          0          0          0          0          4          0          0          0          0          0          0          0
  countsols        :          0          0          0          0          0          0          0          4          0          0          0          0          0          0          0
  components       :          0          0          0          0          0          0          0          0          0          0          0          0          0          0          0
Constraint Timings :  TotalTime  SetupTime   Separate  Propagate     EnfoLP     EnfoPS     EnfoRelax   Check    ResProp    SB-Prop
  benderslp        :       0.01       0.00       0.00       0.00       0.01       0.00       0.00       0.00       0.00       0.00
  integral         :    1760.59       0.00       0.00       0.00    1760.57       0.00       0.00       0.02       0.00       0.00
  knapsack         :       0.46       0.00       0.00       0.43       0.00       0.00       0.00       0.00       0.00       0.03
  setppc           :       4.98       0.01       0.08       3.91       0.00       0.00       0.00       0.00       0.09       0.89
  linear           :       0.12       0.06       0.00       0.04       0.00       0.00       0.00       0.00       0.00       0.02
  logicor          :       0.29       0.00       0.00       0.20       0.00       0.00       0.00       0.00       0.01       0.08
  benders          :       0.00       0.00       0.00       0.00       0.00       0.00       0.00       0.00       0.00       0.00
  countsols        :       0.00       0.00       0.00       0.00       0.00       0.00       0.00       0.00       0.00       0.00
  components       :       0.19       0.00       0.00       0.17       0.00       0.00       0.00       0.00       0.00       0.02
Propagators        : #Propagate   #ResProp    Cutoffs    DomReds
  dualfix          :          1          0          0          0
  genvbounds       :          0          0          0          0
  nlobbt           :          0          0          0          0
  obbt             :          0          0          0          0
  orbitalfixing    :      34230          0          0          5
  probing          :          0          0          0          0
  pseudoobj        :      94097        492          0          1
  redcost          :         13          0          0          0
  rootredcost      :          0          0          0          0
  vbounds          :     883260          0          0          0
Propagator Timings :  TotalTime  SetupTime   Presolve  Propagate    ResProp    SB-Prop
  dualfix          :       0.01       0.00       0.01       0.00       0.00       0.00
  genvbounds       :       0.51       0.00       0.00       0.49       0.00       0.02
  nlobbt           :       0.00       0.00       0.00       0.00       0.00       0.00
  obbt             :       0.00       0.00       0.00       0.00       0.00       0.00
  orbitalfixing    :      19.07       0.00       0.00      19.06       0.00       0.01
  probing          :       0.67       0.00       0.67       0.00       0.00       0.00
  pseudoobj        :       1.31       0.00       0.00       1.26       0.04       0.01
  redcost          :       0.47       0.00       0.00       0.45       0.00       0.02
  rootredcost      :       0.39       0.00       0.00       0.38       0.00       0.01
  vbounds          :      22.14       0.00       0.05      22.05       0.00       0.04
Orbital fixing     :
  vars fixed to 0  :          5
  vars fixed to 1  :          0
Conflict Analysis  :       Time      Calls    Success    DomReds  Conflicts   Literals    Reconvs ReconvLits   Dualrays   Nonzeros   LP Iters   (pool size: [10000,10000])
  propagation      :       0.12       2452       2449          -       7997       15.3        818       11.5          -          -          -
  infeasible LP    :       0.63         53         53          -        301       31.1         17       16.6         53       34.4          0
  bound exceed. LP :       4.14        292        292          -       1541       25.6        146       13.4        292       35.0         80
  strong branching :       0.00          0          0          -          0        0.0          0        0.0          -          -          0
  pseudo solution  :       0.00          0          0          -          0        0.0          0        0.0          -          -          -
  applied globally :       0.36          -          -          0       8604       11.4          -          -        345          -          -
  applied locally  :          -          -          -          0          0        0.0          -          -          0          -          -
Separators         :   ExecTime  SetupTime      Calls    Cutoffs    DomReds       Cuts    Applied      Conss
  cut pool         :       1.57                  2529          -          -      65992          -          -    (maximal pool size: 11966)
  aggregation      :      31.46       0.00        164          0          0          0          0          0
  cgmip            :       0.00       0.00          0          0          0          0          0          0
  clique           :     513.55       0.00         11          0          0          0          0          0
  closecuts        :       0.00       0.00          0          0          0          0          0          0
  cmir             :       0.00       0.00          0          0          0          0          3          0
  convexproj       :       0.00       0.00          0          0          0          0          0          0
  disjunctive      :       0.00       0.00          0          0          0          0          0          0
  eccuts           :       0.00       0.00          0          0          0          0          0          0
  flowcover        :       0.00       0.00          0          0          0          0          0          0
  gauge            :       0.00       0.00          0          0          0          0          0          0
  gomory           :       6.50       0.00        163          0          0          0       2379          0
  impliedbounds    :       0.49       0.00        164          0          0          0          3          0
  intobj           :       0.00       0.00          0          0          0          0          0          0
  mcf              :       0.05       0.00          1          0          0          0          0          0
  oddcycle         :       0.00       0.00          0          0          0          0          0          0
  rapidlearning    :       0.00       0.00          0          0          0          0          0          0
  strongcg         :       4.39       0.00        164          0          0          0       1074          0
  zerohalf         :     262.82       0.00        164          0          0          1       4895          0
Pricers            :   ExecTime  SetupTime      Calls       Vars
  problem variables:       0.00          -          0          0
Branching Rules    :   ExecTime  SetupTime   BranchLP  BranchExt   BranchPS    Cutoffs    DomReds       Cuts      Conss   Children
  allfullstrong    :       0.00       0.00          0          0          0          0          0          0          0          0
  cloud            :       0.00       0.00          0          0          0          0          0          0          0          0
  distribution     :       0.00       0.00          0          0          0          0          0          0          0          0
  fullstrong       :       0.00       0.00          0          0          0          0          0          0          0          0
  inference        :       0.00       0.00          0          0          0          0          0          0          0          0
  leastinf         :       0.00       0.00          0          0          0          0          0          0          0          0
  lookahead        :       0.00       0.00          0          0          0          0          0          0          0          0
  mostinf          :       0.00       0.00          0          0          0          0          0          0          0          0
  multaggr         :       0.00       0.00          0          0          0          0          0          0          0          0
  nodereopt        :       0.00       0.00          0          0          0          0          0          0          0          0
  pscost           :       0.00       0.00          0          0          0          0          0          0          0          0
  random           :       0.00       0.00          0          0          0          0          0          0          0          0
  relpscost        :    1760.48       0.00      12074          0          0          0       2396          0       2270      23496
Primal Heuristics  :   ExecTime  SetupTime      Calls      Found       Best
  LP solutions     :       0.00          -          -          0          0
  relax solutions  :       0.00          -          -          0          0
  pseudo solutions :       0.00          -          -          0          0
  strong branching :       0.06          -          -          0          0
  actconsdiving    :       0.00       0.00          0          0          0
  alns             :       3.37       0.00          7          0          0
  bound            :       0.00       0.00          0          0          0
  clique           :       0.48       0.00          1          0          0
  coefdiving       :     286.73       0.00         96          0          0
  completesol      :       0.00       0.00          0          0          0
  conflictdiving   :       0.00       0.00          0          0          0
  crossover        :       0.51       0.00          1          0          0
  dins             :       0.00       0.00          0          0          0
  distributiondivin:      46.20       0.00         70          0          0
  dualval          :       0.00       0.00          0          0          0
  farkasdiving     :       0.00       0.00          0          0          0
  feaspump         :     393.32       0.00          6          3          1
  fixandinfer      :       0.00       0.00          0          0          0
  fracdiving       :      21.52       0.00         70          0          0
  gins             :       0.19       0.00          0          0          0
  guideddiving     :      16.14       0.00         59          0          0
  indicator        :       0.00       0.00          0          0          0
  intdiving        :       0.00       0.00          0          0          0
  intshifting      :       0.00       0.00          0          0          0
  linesearchdiving :      54.98       0.00         55          0          0
  localbranching   :       0.00       0.00          0          0          0
  locks            :       0.14       0.00          1          0          0
  lpface           :       0.47       0.00          0          0          0
  mpec             :       0.00       0.00          0          0          0
  multistart       :       0.00       0.00          0          0          0
  mutation         :       0.00       0.00          0          0          0
  nlpdiving        :       0.00       0.00          0          0          0
  objpscostdiving  :     477.91       0.00          3          0          0
  octane           :       0.00       0.00          0          0          0
  ofins            :       0.01       0.00          0          0          0
  oneopt           :       0.06       0.00          1          0          0
  proximity        :       0.00       0.00          0          0          0
  pscostdiving     :      17.46       0.00         87          0          0
  randrounding     :      10.87       0.00       1883          0          0
  rens             :       0.01       0.00          0          0          0
  reoptsols        :       0.00       0.00          0          0          0
  repair           :       0.00       0.00          0          0          0
  rins             :       7.68       0.00         10          0          0
  rootsoldiving    :       4.86       0.00          3          0          0
  rounding         :       8.63       0.00       1619          0          0
  shiftandpropagate:       0.30       0.00          1          0          0
  shifting         :      14.51       0.00        753          0          0
  simplerounding   :       0.00       0.00      14018          0          0
  subnlp           :       0.04       0.00          0          0          0
  trivial          :       0.08       0.00          2          0          0
  trivialnegation  :       0.00       0.00          0          0          0
  trysol           :       0.00       0.00          0          0          0
  twoopt           :       0.00       0.00          0          0          0
  undercover       :       0.00       0.00          0          0          0
  vbounds          :       5.83       0.00          1          0          0
  veclendiving     :      88.61       0.00         60          0          0
  zeroobj          :       0.00       0.00          0          0          0
  zirounding       :       4.63       0.00       1000          0          0
  other solutions  :          -          -          -          0          -
Diving Statistics  :      Calls      Nodes   LP Iters Backtracks  Conflicts   MinDepth   MaxDepth   AvgDepth  RoundSols  NLeafSols  MinSolDpt  MaxSolDpt  AvgSolDpt
  actconsdiving    :          0          -          -          -          -          -          -          -          -          -          -          -          -
  coefdiving       :         96      94879          0        202        785        219       1770     1042.0          0          -          -          -          -
  conflictdiving   :          0          -          -          -          -          -          -          -          -          -          -          -          -
  distributiondivin:         70      21774      10553        171        758         17       1510      431.2          0          -          -          -          -
  farkasdiving     :          0          -          -          -          -          -          -          -          -          -          -          -          -
  fracdiving       :         70       6800          0        154        707         21        575      217.5          0          -          -          -          -
  guideddiving     :         59       4986          0        127        568         34        527      215.4          0          -          -          -          -
  linesearchdiving :         55      18277          0        170        896         87        824      474.7          0          -          -          -          -
  pscostdiving     :         87      38735       6900        156       1075         97        946      533.2          0          -          -          -          -
  veclendiving     :         60      24737        374        212        952         29       1570      550.9          0          -          -          -          -
Neighborhoods      :      Calls  SetupTime  SolveTime SolveNodes       Sols       Best       Exp3  EpsGreedy        UCB TgtFixRate  Opt  Inf Node Stal  Sol  Usr Othr Actv
  rens             :          1       0.00       0.00          0          0          0    0.00000   -1.00000    0.05929      0.900    0    0    0    0    0    0    1    1
  rins             :          1       0.34       0.10          0          0          0    0.00000   -1.00000    0.55929      0.700    0    1    0    0    0    0    0    1
  mutation         :          1       0.36       0.09          0          0          0    0.00000   -1.00000    0.55929      0.700    0    1    0    0    0    0    0    1
  localbranching   :          1       0.26       0.10          0          0          0    0.00000   -1.00000    0.55929      0.700    0    1    0    0    0    0    0    1
  crossover        :          0       0.00       0.00          0          0          0    0.00000   -1.00000    0.05929      0.900    0    0    0    0    0    0    0    1
  proximity        :          1       0.27       0.40          0          0          0    0.00000   -1.00000    0.55929      0.700    0    1    0    0    0    0    0    1
  zeroobjective    :          1       0.29       0.10          0          0          0    0.00000   -1.00000    0.55929      0.700    0    1    0    0    0    0    0    1
  dins             :          1       0.35       0.10          0          0          0    0.00000   -1.00000    0.55929      0.700    0    1    0    0    0    0    0    1
LP                 :       Time      Calls Iterations  Iter/call   Iter/sec  Time-0-It Calls-0-It    ItLimit
  primal LP        :      49.58        104          0       0.00       0.00      49.58        104
  dual LP          :    2833.90      17889    1002362      56.29     353.70       0.94         81
  lex dual LP      :       0.00          0          0       0.00          -
  barrier LP       :       0.00          0          0       0.00          -       0.00          0
  resolve instable :       0.00          0          0       0.00          -
  diving/probing LP:     891.38       2073     360317     173.81     404.22
  strong branching :    1558.39       6402     637546      99.59     409.11          -          -        349
    (at root node) :          -         19      17729     933.11          -
  conflict analysis:       0.41          8         80      10.00     195.12
B&B Tree           :
  number of runs   :          1
  nodes            :      15962 (11748 internal, 4214 leaves)
  feasible leaves  :          0
  infeas. leaves   :        383
  objective leaves :       3831
  nodes (total)    :      15962 (11748 internal, 4214 leaves)
  nodes left       :       2131
  max depth        :        690
  max depth (total):        690
  backtracks       :       2669 (16.7%)
  early backtracks :        215 (8.1%)
  nodes exc. ref.  :          0 (0.0%)
  delayed cutoffs  :       5404
  repropagations   :      18365 (5408 domain reductions, 128 cutoffs)
  avg switch length:       6.23
  switching time   :      54.96
Root Node          :
  First LP value   : +3.00000000000000e+00
  First LP Iters   :      60569 (809.64 Iter/sec)
  First LP Time    :      74.81
  Final Dual Bound : +3.00000000000000e+00
  Final Root Iters :     104593
  Root LP Estimate : +3.19679342703369e+00
Solution           :
  Solutions found  :          3 (1 improvements)
  First Solution   : +4.00000000000000e+00   (in run 1, after 1 nodes, 242.20 seconds, depth 0, found by <feaspump>)
  Gap First Sol.   :      33.33 %
  Gap Last Sol.    :      33.33 %
  Primal Bound     : +4.00000000000000e+00   (in run 1, after 1 nodes, 242.20 seconds, depth 0, found by <feaspump>)
  Dual Bound       : +3.00000000000000e+00
  Gap              :      33.33 %
  Avg. Gap         :      27.52 % (198166.50 primal-dual integral)
  Tree Data        : 23497 nodes (21366 visited, 11748 inner, 9618 leaves, 2131 open), progress: 0.5020
Tree Estimation    :       estim       value       trend  resolution      smooth
  wbe              :       38321           -           -           -           -
  tree profile     : 77421831017078466201387784398101641500424710801143661320768323584           -           -           -           -
  gap              :       42732     0.75000     0.00000          16       42553
  progress         :       42732     0.50196     0.00000          16       42553
  leaf-frequency   :       42732     0.45093    -0.00000          16       42553
  ssg              :       42732     0.50000    -0.00000          16       42553
  open-nodes       :       42732  2093.00000     9.34870          16       42553


SCIP> checksol

check best solution
solution is feasible in original problem
Violation          :    absolute    relative
  bounds           : 0.00000e+00 0.00000e+00
  integrality      : 0.00000e+00           -
  LP rows          : 0.00000e+00 0.00000e+00
  constraints      : 0.00000e+00 0.00000e+00

SCIP> write sol /local/tmp/bzfhende-tmpdir/bzfhende.miplib2017.22_chromaticindex11024-7.scip.M640.enable_treeprofile.sol

written solution information to file </local/tmp/bzfhende-tmpdir/bzfhende.miplib2017.22_chromaticindex1024-7.scip.M640.enable_treeprofile.sol>

SCIP> quit

Disabling tree profile data collection
Read MPS: 1
MIP has 73728 vars and 67583 constraints
Read SOL: 1
Objective value computed by solver: 4

Integrality tolerance: 1/10000
Linear tolerance: 1/10000
Objective tolerance: 1/10000

Check SOL: Integrality 1 Constraints 1 Objective 1
Maximum violations: Integrality 0 Constraints 0 Objective 0
@04 1566483010
-----------------------------
Do 22. Aug 16:10:10 CEST 2019
-----------------------------

=ready=
